50
150
100
100
96
94
90
88
87
85
83
81
80
80
77
74
65
62
62
62
61
59
59
57
54
51
45
45
40
38
37
37
37
36
29
29
27
26
22
22
21
17
14
14
8
7
6
5
5
3
3
1
